704 824 392 512
745 865 373 493
777 897 389 509
717 837 360 475
701 821 391 511
859 979 376 496
852 972 380 500
843 963 423 543
797 917 421 541
827 947 360 468
819 939 376 496
867 987 484 604
813 933 462 582
702 822 399 519
845 965 360 459
966 1086 360 462
733 853 409 529
825 945 423 543
823 943 402 522
728 848 428 548
821 941 414 534
878 998 403 523
842 962 440 560
923 1043 422 542
759 879 400 520
829 949 385 505
897 1017 414 534
873 993 360 472
754 874 406 526
867 987 416 536
708 828 368 488
803 923 389 509
840 960 395 515
751 871 381 501
799 919 369 489
938 1058 360 460
854 974 390 510
744 864 388 508
786 906 363 483
814 934 476 596
902 1022 452 572
771 891 545 665
776 896 393 513
753 873 415 535
896 1016 361 481
811 931 360 475
732 852 422 542
712 832 442 562
763 883 423 543
895 1015 426 546
